p cnf 100 160
-15 82 35 0
29 1 -85 0
-32 -19 -40 0
22 -27 -92 0
-61 -87 -68 0
-24 -65 -13 0
95 -31 51 0
38 8 -39 0
-21 26 -14 0
88 86 44 0
-95 -9 -97 0
10 -79 -24 0
-36 -19 90 0
-19 -27 13 0
61 -80 -67 0
72 58 79 0
-39 -88 42 0
31 42 -1 0
16 -54 7 0
-95 71 22 0
-88 -34 7 0
39 83 43 0
10 86 -15 0
-81 -80 50 0
-73 69 18 0
-60 -16 -55 0
-9 -41 -1 0
-17 64 70 0
-24 56 60 0
-11 17 13 0
-52 48 8 0
-80 -71 -6 0
-75 47 -68 0
-99 69 50 0
-70 -89 39 0
74 -88 4 0
-3 47 -21 0
-17 -38 -53 0
20 48 -88 0
-97 87 73 0
-29 49 33 0
81 -14 -2 0
40 35 90 0
56 -85 15 0
-15 68 -64 0
-8 -18 -17 0
-98 11 -73 0
-5 52 -59 0
33 13 53 0
80 1 23 0
-29 80 -23 0
-44 -60 -91 0
86 -32 -16 0
-33 -12 100 0
42 54 64 0
-41 89 86 0
-100 6 21 0
97 7 -76 0
29 -89 -21 0
31 -56 -28 0
40 17 -91 0
-80 31 44 0
-53 45 -69 0
-26 58 88 0
70 78 39 0
54 -3 80 0
-96 -47 -94 0
39 -24 36 0
24 -34 39 0
-98 43 -73 0
31 -42 -86 0
41 -100 -96 0
-100 -16 -53 0
-74 88 100 0
-43 -71 -46 0
93 52 73 0
-94 -65 -21 0
-94 34 20 0
-62 -81 39 0
89 -9 -25 0
24 -25 -14 0
-17 -96 59 0
1 -4 32 0
70 -85 -18 0
24 38 41 0
-66 33 72 0
-84 46 27 0
36 -2 -61 0
62 15 48 0
31 -24 30 0
-27 49 70 0
-46 77 -78 0
21 -97 50 0
-89 17 94 0
-91 -67 -45 0
43 -28 -59 0
-67 39 -35 0
-30 75 -57 0
88 14 -65 0
-72 100 -18 0
x -9 11 -12 -13 15 -16 18 20 -22 -23 24 31 -32 -36 -41 42 -45 -46 -47 -48 -51 -52 53 56 57 -58 60 61 -62 63 -64 67 -68 70 -72 -73 75 77 80 90 -91 -93 -95 -98 -100 0
x 2 -8 -9 12 15 -16 -17 18 19 22 23 -24 26 27 -30 32 -33 34 -39 40 -41 42 -48 49 52 -55 -59 -60 -62 -63 -68 71 73 -81 83 -84 -85 -91 92 -93 94 99 -100 0
x -2 4 -5 6 8 -12 -13 -18 19 -23 -24 25 27 29 -30 -31 -32 34 35 38 39 46 49 -50 -54 -56 59 60 -63 -67 -72 -76 77 78 -81 86 -88 89 -93 0
x 2 -5 6 -9 12 -15 23 26 27 29 31 32 39 41 -42 43 45 46 47 49 51 -52 53 -54 -57 -63 -64 -65 -66 -67 -68 -74 -75 -76 78 -79 -80 81 82 85 86 -91 92 93 96 -97 0
x -1 2 -3 5 9 11 -13 14 -16 18 19 20 -21 -22 24 25 26 -32 -35 -36 -38 -39 40 -42 -47 48 51 52 54 55 -57 58 -59 -61 62 -63 65 -66 67 68 -72 -74 81 -84 -86 89 91 94 95 96 98 100 0
x -1 3 -5 -9 10 -13 -15 -18 -19 -20 -26 28 32 -39 -40 41 -43 -45 -46 -48 -50 52 53 54 55 56 59 60 61 -62 -66 67 -73 -77 78 80 83 84 -86 -87 -89 -91 -94 -95 97 0
x -1 5 -6 -9 12 13 -15 16 -17 -18 19 22 -23 -24 26 -27 -28 -29 32 36 -37 38 -42 45 47 48 -50 53 -54 58 59 60 -64 -67 -72 76 77 -85 -86 87 88 89 -90 91 -94 -96 99 0
x 2 3 5 9 12 13 15 -16 -18 -19 21 -24 -26 -29 -31 -32 33 -34 -36 -39 41 44 46 -49 52 55 56 63 64 66 67 68 69 71 -72 -73 -75 -76 78 -80 -82 -84 -85 -86 -87 88 89 -90 -91 -93 -95 -96 97 99 0
x -2 -3 -7 8 9 -10 12 -14 15 -16 17 -18 20 29 30 -31 36 37 39 40 42 45 46 48 52 53 54 55 56 -57 -58 60 61 64 -65 66 68 72 -73 -74 76 -80 81 82 -84 86 -87 89 -90 91 -93 -94 95 -96 -97 0
x -1 3 -5 -6 -8 12 13 -17 -29 -30 -33 35 38 -42 -43 -44 46 -49 -51 52 -55 -56 61 -62 64 65 66 67 -68 69 70 72 -74 -75 77 -78 -82 83 -84 85 86 -89 -90 -91 -93 96 97 98 -100 0
x 1 -4 5 6 8 10 -11 -15 16 -18 19 20 -23 24 28 -29 -31 32 -35 -37 -41 42 44 -46 50 -51 -53 54 57 58 59 -60 -61 -63 -64 65 -68 69 -71 76 78 -79 -82 89 -90 91 95 99 -100 0
x 3 -4 -5 -6 -9 -14 -15 17 22 26 27 -28 -30 -31 -36 -39 43 -44 -45 -46 49 51 52 57 58 64 -68 -69 -70 72 75 76 -79 81 84 -86 87 -88 -90 94 -95 -98 99 -100 0
x -2 3 -4 -5 6 -8 10 11 12 -16 -18 20 -21 23 27 28 -30 31 -35 -36 37 38 44 -51 -52 -53 -54 -55 57 -58 -59 60 63 -65 67 68 69 70 71 -72 -73 -78 -79 80 81 -83 -84 -85 -86 89 90 -91 93 -94 96 0
x 2 3 -5 6 8 10 11 13 -16 18 -19 21 -23 24 -26 27 28 36 -38 39 40 41 46 -47 -48 -52 53 -54 55 58 -59 60 62 -63 -65 -66 67 -68 69 -70 71 72 -73 78 80 83 -85 -86 89 -90 91 93 -96 97 0
x 4 -5 -8 11 12 13 16 -19 20 -21 -22 -25 26 -28 -31 32 34 36 39 -40 41 42 44 -45 47 -48 -49 -51 -52 -53 54 55 56 59 60 -61 -63 -65 66 67 -69 70 -71 -73 -77 79 -80 81 -82 86 -88 -90 -91 -96 -97 100 0
x 1 2 -3 5 -6 -8 9 11 -12 -14 -15 -18 20 -22 -23 -27 28 29 -31 33 -35 -38 -40 -41 42 45 -46 50 51 53 54 -57 -58 -61 -62 -66 72 -73 -74 -76 -80 -82 -84 85 87 -88 89 -91 93 -94 -97 -98 100 0
x -5 6 8 -10 12 13 -14 -15 16 20 21 23 24 26 27 29 32 38 -39 -40 -41 42 -47 -48 -49 50 52 -56 -59 60 -61 62 -64 -65 -66 -77 -78 82 84 86 -89 -92 -93 94 96 98 100 0
x 2 -3 7 9 12 14 -19 -21 -24 -26 27 31 32 -33 -34 -37 38 -40 -41 42 44 45 -46 -51 52 -54 -55 57 -58 59 61 62 -63 -65 -66 -67 -72 -73 74 -76 -77 79 80 -82 83 85 -86 -87 -88 89 90 -91 0
x 1 3 4 -8 11 -13 -14 15 -16 -17 20 -21 22 -23 24 27 -28 -29 -30 -31 -32 -36 40 41 43 -44 45 -51 54 -57 58 -59 60 62 63 64 -66 69 -71 73 -75 76 82 83 -84 85 -86 -87 88 93 95 -97 98 0
x 4 8 9 15 -17 -18 -20 -21 22 -23 -28 -30 -31 -32 -34 35 -36 38 40 -43 -45 47 48 49 -50 -54 -55 -56 -57 -58 -59 -60 -61 -64 65 -66 69 -73 -74 -75 -76 78 -81 82 85 86 88 89 90 93 -94 -95 96 97 100 0
x -5 -8 11 -12 -13 -14 18 -19 20 -21 22 26 27 28 31 -32 33 -34 -35 -37 -41 -42 -43 -45 47 50 -51 -52 -53 -54 -59 65 66 -69 71 -73 -76 77 79 81 86 87 88 -89 90 93 -94 95 -96 99 0
x 7 -9 11 13 -14 -17 -18 -21 -22 25 -26 -29 -31 -32 -34 36 42 -44 47 -48 51 -52 54 -56 60 61 -63 -67 -68 -72 -73 -74 77 78 82 -83 -84 85 89 -90 91 92 -93 -94 95 -96 -97 98 0
x 3 4 6 -8 -9 -12 15 -16 -17 -18 19 20 21 22 -25 -27 29 30 -32 -33 -34 -35 -36 37 42 47 48 -49 -50 52 54 56 -57 59 -60 -61 62 -63 -68 69 72 -79 80 81 -83 -84 -85 -86 91 -93 94 -95 96 -97 99 100 0
x -1 -2 -4 6 7 8 11 17 -22 -26 -27 -29 -30 -33 34 36 -39 -41 42 46 -51 52 53 55 57 60 -61 -62 64 -65 -66 -67 68 70 74 -77 78 79 -80 -85 87 -90 94 96 99 0
x -4 -5 -9 11 -12 -14 15 21 -22 24 26 27 -28 -29 31 -33 35 36 -39 -41 43 -44 -50 54 57 60 62 63 66 -67 69 -71 73 -74 -79 83 -84 85 86 -87 -90 91 -93 -95 -96 97 -99 100 0
x -1 -5 6 -8 -9 -10 -15 18 19 21 -22 -24 25 -27 28 -29 -31 -32 34 -35 -37 38 -42 -43 44 -45 -46 -47 -49 -53 54 -55 -56 61 62 -65 67 -70 -74 75 -78 80 -83 -86 -87 -88 91 -96 0
x -2 5 -8 -9 10 -11 12 13 14 17 21 -22 -23 24 25 26 -27 -29 32 33 34 -36 37 39 -40 -43 46 -48 52 -55 57 59 -62 64 65 66 -69 -70 71 -72 -75 -77 -78 -79 -80 85 86 -87 88 89 90 -94 -96 97 98 -99 0
x 1 -2 4 5 6 11 12 -13 -15 -20 -28 -30 32 -33 38 -39 40 -41 43 44 45 47 -49 -50 52 54 -56 59 -61 62 -64 -66 69 -70 -74 -76 -77 -79 80 81 85 -86 88 -89 92 -94 95 -96 -97 100 0
x 1 -4 -5 -6 -7 8 9 12 14 -15 16 17 18 20 21 22 -23 -24 25 -26 28 29 34 37 -38 -39 -41 -42 -44 -45 46 -49 -50 51 52 -57 58 -60 -61 63 -64 69 -70 73 -74 76 -78 80 82 84 87 -89 -91 92 -94 96 98 -99 0
x 4 8 9 -10 11 12 -13 -15 18 19 -22 24 26 -27 28 29 30 34 -35 -36 -38 40 44 -45 46 47 -48 49 -50 51 -52 -53 -54 -57 -58 -60 61 -62 63 67 -68 69 71 -72 -75 -76 -78 -80 -81 -82 83 -85 -86 88 89 90 92 -93 94 -95 -99 -100 0
x -1 -2 -3 5 -8 10 -14 15 20 22 -25 -28 -31 35 -36 -38 42 -43 44 49 -52 53 -54 -55 -57 59 64 66 -67 -68 69 -71 73 74 -75 76 81 86 -90 92 93 -94 95 96 -97 -98 0
x 1 -9 10 -12 13 14 15 -16 -17 21 -23 25 26 31 32 -35 36 37 38 42 46 -47 49 51 52 53 -54 -55 56 57 -63 64 65 -66 68 -73 74 -75 -77 78 -80 -81 -82 83 84 -87 89 90 -92 -95 -96 0
x -2 3 4 -5 -6 7 -9 -13 -15 17 -19 -20 -22 26 27 -28 -29 -32 -34 36 -40 -43 -48 50 -51 52 -56 57 58 59 60 -65 66 -67 -74 -77 -80 82 -87 88 -89 91 92 -95 96 98 100 0
x 1 -3 4 -5 6 -10 12 -14 -21 -22 23 24 -25 27 -28 29 -32 -33 -34 35 -36 38 -40 41 -43 -44 45 46 -53 -54 -55 58 59 -61 62 63 66 -68 -69 71 -74 -75 78 -79 82 -85 86 90 95 -99 -100 0
x -1 5 6 7 8 9 -11 15 16 -17 -18 20 22 -24 -26 27 -28 31 33 -36 37 -38 -39 -40 -43 44 46 47 -49 -50 52 54 -55 -56 58 59 -63 66 -67 72 -74 -75 76 -78 79 81 -82 -85 88 91 93 95 -96 97 98 100 0
x 1 3 4 5 -6 -7 9 -10 12 14 -15 -16 18 -21 -24 25 26 -28 29 30 -32 36 -40 41 42 45 48 51 -54 -55 59 -60 -61 -65 67 71 -75 -76 -77 78 80 81 83 86 -87 -88 -91 95 -97 99 0
x 1 -2 -3 -5 11 -12 15 -18 19 20 26 27 -30 -31 -32 36 -39 -40 -41 -44 46 -47 51 54 -55 56 -57 -59 -62 63 65 -67 68 -69 -71 -72 73 75 -76 -77 78 83 84 85 -87 -90 91 -93 -94 -95 98 0
x 8 10 12 -14 15 -17 19 -20 22 23 24 26 27 28 30 31 32 35 36 -37 -38 -39 41 -47 48 49 -50 53 54 55 -58 -60 61 65 67 69 71 -72 73 -74 -77 78 79 -82 83 85 -86 88 -89 -91 -92 94 95 -96 -98 -99 -100 0
x 1 -4 5 -6 -9 -10 -11 -13 14 -15 17 19 20 -24 -25 30 -31 35 37 -38 -39 -41 -42 -43 -47 -48 -51 52 -53 -57 -58 -59 -60 -61 -62 -63 -65 69 71 -76 -77 78 80 86 87 -88 -90 -92 99 0
x 6 8 12 -14 15 -16 -17 -18 20 24 25 26 -27 -28 31 34 35 -38 39 -40 -41 -44 46 47 -48 -53 -54 -55 56 -60 -62 63 64 -65 67 70 71 72 73 -74 75 76 77 78 81 82 89 -90 93 -96 97 98 99 -100 0
x 2 -4 -8 9 -14 17 18 -20 21 -24 -25 26 27 31 35 -36 37 -40 44 45 -46 47 48 50 -51 -55 57 58 61 -62 64 65 66 67 71 -73 -75 -77 -78 82 -83 -84 -86 -87 -90 91 -92 93 -94 95 -99 100 0
x 3 5 6 11 -13 -14 -19 20 -21 -23 25 -29 -31 32 33 -35 -38 -42 46 47 48 -49 52 53 54 55 59 -64 65 67 -70 -71 -72 -73 -74 80 -84 85 86 87 88 -90 -92 93 94 95 -97 -99 0
x 1 -2 3 -4 7 9 -10 -11 15 16 -17 -18 -21 -23 -27 29 30 -32 33 -35 36 40 -41 43 44 -46 50 -52 53 54 55 56 -61 63 -65 -71 -74 81 84 -85 87 -90 -91 96 98 -100 0
x -2 -6 -7 -8 9 10 -12 -13 14 15 19 20 22 -24 26 28 30 32 -34 -35 37 38 -40 42 44 46 -48 50 51 -53 -57 59 -62 -63 -67 -70 -74 -75 -78 81 -86 89 -92 93 -96 97 100 0
x 3 -4 5 -6 -7 -12 -13 14 -16 -19 21 22 27 -30 -34 35 36 38 -39 41 42 43 -44 -45 46 -47 -49 -51 52 -55 56 -57 -60 -63 -64 -65 67 -68 -69 -71 79 -80 -81 -82 83 -86 88 89 -90 91 -93 95 -97 0
x -1 2 7 -9 -11 -16 17 -18 19 22 -23 -25 -27 -29 30 -31 -32 -34 35 36 37 38 -39 -40 -42 -44 45 46 -47 48 49 -50 -51 52 -53 54 -55 59 62 65 -66 68 -69 -70 -71 73 -74 76 -77 -79 -83 -84 -86 92 -96 100 0
x 1 -3 -6 -7 11 12 -14 -15 18 20 -22 23 24 -27 -28 -29 30 38 40 41 -44 45 -47 -49 50 52 -55 57 59 61 65 66 -71 72 73 -74 -76 -79 -81 84 -85 86 90 -94 -96 0
x -1 -2 -3 -5 -6 7 -10 12 13 -14 15 17 18 -19 21 -23 28 30 -31 33 34 -37 -39 -40 42 -44 -46 48 -52 -57 -58 -60 61 -62 -63 -64 -65 -67 69 70 -73 -74 -75 76 -78 79 -81 83 84 -85 86 88 -92 97 -99 100 0
x 4 5 7 10 -13 -14 -16 -17 18 20 21 23 -24 -25 26 29 -33 36 -37 38 -39 41 42 43 44 -47 -48 -50 52 -54 -55 -56 57 -58 -59 64 68 69 -70 -71 -74 75 -76 78 81 82 -83 -85 -86 -87 89 93 94 -95 98 0
x 1 -2 -3 6 7 -9 10 -12 -17 -18 -19 -20 23 24 27 28 29 30 31 -32 36 39 -41 43 45 -46 -50 55 57 59 62 -63 -66 67 68 -71 73 -77 -78 -79 -80 82 -83 -86 87 -90 91 92 -95 -97 0
x 2 3 6 -7 -8 9 -11 18 19 20 23 26 -27 -28 -29 30 31 -34 37 -41 -42 -44 45 -46 47 -49 -50 51 -52 -55 -56 -57 59 -61 -62 63 64 -67 -69 71 -77 -78 82 -83 88 91 92 -93 -94 -97 0
x -3 4 6 7 -9 -10 -15 18 19 -22 -24 -25 -27 -28 -30 32 36 -37 -38 40 -43 -44 45 48 -49 51 -52 53 -54 55 59 61 -62 -64 67 69 71 -72 -76 -80 -87 89 -92 -96 98 100 0
x -1 2 -4 6 -7 8 -14 16 17 22 23 -24 26 -27 28 -30 -31 -32 -34 41 42 45 48 51 55 -56 59 -60 64 -67 74 -75 -76 77 -79 -83 -89 -91 -92 -93 95 -96 97 98 -99 0
x -1 2 4 5 6 9 -15 -16 17 18 -19 -22 -24 -25 -28 30 -33 37 -38 -39 -40 -41 -44 -45 -46 -51 52 -53 -54 55 56 -57 59 62 -63 68 70 -71 -77 -78 81 -82 -86 90 -92 93 -95 -100 0
x 1 -2 -3 6 8 10 12 -13 -15 16 -19 20 21 -22 23 -25 -27 31 37 38 -40 41 -43 -46 -48 -49 -52 -53 -54 55 -56 -57 -59 -60 -61 -64 -65 -68 69 74 76 77 80 84 88 -89 92 95 -96 100 0
x 1 -4 -5 -6 -10 -12 -14 -17 19 -20 -24 -25 -26 28 -29 31 -33 -37 -39 41 -44 -46 51 52 60 62 63 -64 -65 -67 -68 -70 72 -75 -76 -78 80 -81 82 -84 -87 88 -90 91 93 -94 -95 -96 -100 0
x 2 -3 -4 5 -7 10 -12 -14 15 -16 -17 20 21 -24 -27 28 30 -32 -33 -38 39 40 42 -44 -45 -47 -48 52 57 -59 60 61 64 -68 -70 72 75 -76 77 -78 80 -81 -82 83 -86 -87 89 90 91 93 -94 -95 96 98 99 0
x -1 2 -3 -5 7 9 11 12 14 -15 -16 17 18 24 26 -28 -29 30 31 -32 33 -34 37 39 -40 42 -47 -48 50 51 55 -56 -57 59 60 63 65 -66 -70 71 -75 76 -78 82 83 84 -86 89 -90 -91 -94 -96 100 0
x 2 -3 -4 5 -9 -12 15 -17 -23 -25 27 28 -29 30 32 38 -41 -43 -44 45 -46 47 48 -49 50 -56 60 62 -64 65 -68 -69 -70 -71 72 -74 75 -76 -77 -78 80 82 -83 -84 88 89 90 -91 -94 95 -96 -98 -100 0
x 1 -3 12 -13 14 21 -26 27 -28 -30 -31 -34 -35 -37 38 -42 -45 -48 51 -53 -54 55 -56 -59 63 64 66 74 -76 77 79 80 -81 82 -84 -87 91 -92 -93 -94 -95 96 97 -98 -99 0
